(set-logic QF_LRA)
(declare-fun X0 () Real )
(declare-fun Y0 () Real )
(declare-fun X1 () Real )
(declare-fun Y1 () Real )
(declare-fun X2 () Real )
(declare-fun Y2 () Real )
(declare-fun X3 () Real )
(declare-fun Y3 () Real )
(declare-fun X4 () Real )
(declare-fun Y4 () Real )
(declare-fun X5 () Real )
(declare-fun Y5 () Real )
(declare-fun X6 () Real )
(declare-fun Y6 () Real )
(declare-fun X7 () Real )
(declare-fun Y7 () Real )
(declare-fun X8 () Real )
(declare-fun Y8 () Real )
(declare-fun X9 () Real )
(declare-fun Y9 () Real )
(declare-fun X10 () Real )
(declare-fun Y10 () Real )
(declare-fun X11 () Real )
(declare-fun Y11 () Real )
(declare-fun X12 () Real )
(declare-fun Y12 () Real )
(declare-fun X13 () Real )
(declare-fun Y13 () Real )
(declare-fun X14 () Real )
(declare-fun Y14 () Real )
(declare-fun X15 () Real )
(declare-fun Y15 () Real )
(declare-fun X16 () Real )
(declare-fun Y16 () Real )
(declare-fun X17 () Real )
(declare-fun Y17 () Real )
(declare-fun Z () Real )
(declare-fun k () Real )
(assert (let
(( $goal (>= Z k) ))
(let
((
$phi ( and 
( or ( <= ( + X0 87 ) X1 )  ( <= ( + X1 32 ) X0 )  ( <= ( + Y0 51 ) Y1 )  ( <= ( + Y1 95 ) Y0 )  )
( or ( <= ( + X0 87 ) X2 )  ( <= ( + X2 51 ) X0 )  ( <= ( + Y0 51 ) Y2 )  ( <= ( + Y2 54 ) Y0 )  )
( or ( <= ( + X0 87 ) X3 )  ( <= ( + X3 16 ) X0 )  ( <= ( + Y0 51 ) Y3 )  ( <= ( + Y3 55 ) Y0 )  )
( or ( <= ( + X0 87 ) X4 )  ( <= ( + X4 22 ) X0 )  ( <= ( + Y0 51 ) Y4 )  ( <= ( + Y4 15 ) Y0 )  )
( or ( <= ( + X0 87 ) X5 )  ( <= ( + X5 90 ) X0 )  ( <= ( + Y0 51 ) Y5 )  ( <= ( + Y5 23 ) Y0 )  )
( or ( <= ( + X0 87 ) X6 )  ( <= ( + X6 59 ) X0 )  ( <= ( + Y0 51 ) Y6 )  ( <= ( + Y6 2 ) Y0 )  )
( or ( <= ( + X0 87 ) X7 )  ( <= ( + X7 59 ) X0 )  ( <= ( + Y0 51 ) Y7 )  ( <= ( + Y7 34 ) Y0 )  )
( or ( <= ( + X0 87 ) X8 )  ( <= ( + X8 99 ) X0 )  ( <= ( + Y0 51 ) Y8 )  ( <= ( + Y8 75 ) Y0 )  )
( or ( <= ( + X0 87 ) X9 )  ( <= ( + X9 16 ) X0 )  ( <= ( + Y0 51 ) Y9 )  ( <= ( + Y9 57 ) Y0 )  )
( or ( <= ( + X0 87 ) X10 )  ( <= ( + X10 3 ) X0 )  ( <= ( + Y0 51 ) Y10 )  ( <= ( + Y10 17 ) Y0 )  )
( or ( <= ( + X0 87 ) X11 )  ( <= ( + X11 27 ) X0 )  ( <= ( + Y0 51 ) Y11 )  ( <= ( + Y11 23 ) Y0 )  )
( or ( <= ( + X0 87 ) X12 )  ( <= ( + X12 89 ) X0 )  ( <= ( + Y0 51 ) Y12 )  ( <= ( + Y12 45 ) Y0 )  )
( or ( <= ( + X0 87 ) X13 )  ( <= ( + X13 41 ) X0 )  ( <= ( + Y0 51 ) Y13 )  ( <= ( + Y13 3 ) Y0 )  )
( or ( <= ( + X0 87 ) X14 )  ( <= ( + X14 98 ) X0 )  ( <= ( + Y0 51 ) Y14 )  ( <= ( + Y14 54 ) Y0 )  )
( or ( <= ( + X0 87 ) X15 )  ( <= ( + X15 75 ) X0 )  ( <= ( + Y0 51 ) Y15 )  ( <= ( + Y15 48 ) Y0 )  )
( or ( <= ( + X0 87 ) X16 )  ( <= ( + X16 13 ) X0 )  ( <= ( + Y0 51 ) Y16 )  ( <= ( + Y16 70 ) Y0 )  )
( or ( <= ( + X0 87 ) X17 )  ( <= ( + X17 22 ) X0 )  ( <= ( + Y0 51 ) Y17 )  ( <= ( + Y17 28 ) Y0 )  )
( or ( <= ( + X1 32 ) X2 )  ( <= ( + X2 51 ) X1 )  ( <= ( + Y1 95 ) Y2 )  ( <= ( + Y2 54 ) Y1 )  )
( or ( <= ( + X1 32 ) X3 )  ( <= ( + X3 16 ) X1 )  ( <= ( + Y1 95 ) Y3 )  ( <= ( + Y3 55 ) Y1 )  )
( or ( <= ( + X1 32 ) X4 )  ( <= ( + X4 22 ) X1 )  ( <= ( + Y1 95 ) Y4 )  ( <= ( + Y4 15 ) Y1 )  )
( or ( <= ( + X1 32 ) X5 )  ( <= ( + X5 90 ) X1 )  ( <= ( + Y1 95 ) Y5 )  ( <= ( + Y5 23 ) Y1 )  )
( or ( <= ( + X1 32 ) X6 )  ( <= ( + X6 59 ) X1 )  ( <= ( + Y1 95 ) Y6 )  ( <= ( + Y6 2 ) Y1 )  )
( or ( <= ( + X1 32 ) X7 )  ( <= ( + X7 59 ) X1 )  ( <= ( + Y1 95 ) Y7 )  ( <= ( + Y7 34 ) Y1 )  )
( or ( <= ( + X1 32 ) X8 )  ( <= ( + X8 99 ) X1 )  ( <= ( + Y1 95 ) Y8 )  ( <= ( + Y8 75 ) Y1 )  )
( or ( <= ( + X1 32 ) X9 )  ( <= ( + X9 16 ) X1 )  ( <= ( + Y1 95 ) Y9 )  ( <= ( + Y9 57 ) Y1 )  )
( or ( <= ( + X1 32 ) X10 )  ( <= ( + X10 3 ) X1 )  ( <= ( + Y1 95 ) Y10 )  ( <= ( + Y10 17 ) Y1 )  )
( or ( <= ( + X1 32 ) X11 )  ( <= ( + X11 27 ) X1 )  ( <= ( + Y1 95 ) Y11 )  ( <= ( + Y11 23 ) Y1 )  )
( or ( <= ( + X1 32 ) X12 )  ( <= ( + X12 89 ) X1 )  ( <= ( + Y1 95 ) Y12 )  ( <= ( + Y12 45 ) Y1 )  )
( or ( <= ( + X1 32 ) X13 )  ( <= ( + X13 41 ) X1 )  ( <= ( + Y1 95 ) Y13 )  ( <= ( + Y13 3 ) Y1 )  )
( or ( <= ( + X1 32 ) X14 )  ( <= ( + X14 98 ) X1 )  ( <= ( + Y1 95 ) Y14 )  ( <= ( + Y14 54 ) Y1 )  )
( or ( <= ( + X1 32 ) X15 )  ( <= ( + X15 75 ) X1 )  ( <= ( + Y1 95 ) Y15 )  ( <= ( + Y15 48 ) Y1 )  )
( or ( <= ( + X1 32 ) X16 )  ( <= ( + X16 13 ) X1 )  ( <= ( + Y1 95 ) Y16 )  ( <= ( + Y16 70 ) Y1 )  )
( or ( <= ( + X1 32 ) X17 )  ( <= ( + X17 22 ) X1 )  ( <= ( + Y1 95 ) Y17 )  ( <= ( + Y17 28 ) Y1 )  )
( or ( <= ( + X2 51 ) X3 )  ( <= ( + X3 16 ) X2 )  ( <= ( + Y2 54 ) Y3 )  ( <= ( + Y3 55 ) Y2 )  )
( or ( <= ( + X2 51 ) X4 )  ( <= ( + X4 22 ) X2 )  ( <= ( + Y2 54 ) Y4 )  ( <= ( + Y4 15 ) Y2 )  )
( or ( <= ( + X2 51 ) X5 )  ( <= ( + X5 90 ) X2 )  ( <= ( + Y2 54 ) Y5 )  ( <= ( + Y5 23 ) Y2 )  )
( or ( <= ( + X2 51 ) X6 )  ( <= ( + X6 59 ) X2 )  ( <= ( + Y2 54 ) Y6 )  ( <= ( + Y6 2 ) Y2 )  )
( or ( <= ( + X2 51 ) X7 )  ( <= ( + X7 59 ) X2 )  ( <= ( + Y2 54 ) Y7 )  ( <= ( + Y7 34 ) Y2 )  )
( or ( <= ( + X2 51 ) X8 )  ( <= ( + X8 99 ) X2 )  ( <= ( + Y2 54 ) Y8 )  ( <= ( + Y8 75 ) Y2 )  )
( or ( <= ( + X2 51 ) X9 )  ( <= ( + X9 16 ) X2 )  ( <= ( + Y2 54 ) Y9 )  ( <= ( + Y9 57 ) Y2 )  )
( or ( <= ( + X2 51 ) X10 )  ( <= ( + X10 3 ) X2 )  ( <= ( + Y2 54 ) Y10 )  ( <= ( + Y10 17 ) Y2 )  )
( or ( <= ( + X2 51 ) X11 )  ( <= ( + X11 27 ) X2 )  ( <= ( + Y2 54 ) Y11 )  ( <= ( + Y11 23 ) Y2 )  )
( or ( <= ( + X2 51 ) X12 )  ( <= ( + X12 89 ) X2 )  ( <= ( + Y2 54 ) Y12 )  ( <= ( + Y12 45 ) Y2 )  )
( or ( <= ( + X2 51 ) X13 )  ( <= ( + X13 41 ) X2 )  ( <= ( + Y2 54 ) Y13 )  ( <= ( + Y13 3 ) Y2 )  )
( or ( <= ( + X2 51 ) X14 )  ( <= ( + X14 98 ) X2 )  ( <= ( + Y2 54 ) Y14 )  ( <= ( + Y14 54 ) Y2 )  )
( or ( <= ( + X2 51 ) X15 )  ( <= ( + X15 75 ) X2 )  ( <= ( + Y2 54 ) Y15 )  ( <= ( + Y15 48 ) Y2 )  )
( or ( <= ( + X2 51 ) X16 )  ( <= ( + X16 13 ) X2 )  ( <= ( + Y2 54 ) Y16 )  ( <= ( + Y16 70 ) Y2 )  )
( or ( <= ( + X2 51 ) X17 )  ( <= ( + X17 22 ) X2 )  ( <= ( + Y2 54 ) Y17 )  ( <= ( + Y17 28 ) Y2 )  )
( or ( <= ( + X3 16 ) X4 )  ( <= ( + X4 22 ) X3 )  ( <= ( + Y3 55 ) Y4 )  ( <= ( + Y4 15 ) Y3 )  )
( or ( <= ( + X3 16 ) X5 )  ( <= ( + X5 90 ) X3 )  ( <= ( + Y3 55 ) Y5 )  ( <= ( + Y5 23 ) Y3 )  )
( or ( <= ( + X3 16 ) X6 )  ( <= ( + X6 59 ) X3 )  ( <= ( + Y3 55 ) Y6 )  ( <= ( + Y6 2 ) Y3 )  )
( or ( <= ( + X3 16 ) X7 )  ( <= ( + X7 59 ) X3 )  ( <= ( + Y3 55 ) Y7 )  ( <= ( + Y7 34 ) Y3 )  )
( or ( <= ( + X3 16 ) X8 )  ( <= ( + X8 99 ) X3 )  ( <= ( + Y3 55 ) Y8 )  ( <= ( + Y8 75 ) Y3 )  )
( or ( <= ( + X3 16 ) X9 )  ( <= ( + X9 16 ) X3 )  ( <= ( + Y3 55 ) Y9 )  ( <= ( + Y9 57 ) Y3 )  )
( or ( <= ( + X3 16 ) X10 )  ( <= ( + X10 3 ) X3 )  ( <= ( + Y3 55 ) Y10 )  ( <= ( + Y10 17 ) Y3 )  )
( or ( <= ( + X3 16 ) X11 )  ( <= ( + X11 27 ) X3 )  ( <= ( + Y3 55 ) Y11 )  ( <= ( + Y11 23 ) Y3 )  )
( or ( <= ( + X3 16 ) X12 )  ( <= ( + X12 89 ) X3 )  ( <= ( + Y3 55 ) Y12 )  ( <= ( + Y12 45 ) Y3 )  )
( or ( <= ( + X3 16 ) X13 )  ( <= ( + X13 41 ) X3 )  ( <= ( + Y3 55 ) Y13 )  ( <= ( + Y13 3 ) Y3 )  )
( or ( <= ( + X3 16 ) X14 )  ( <= ( + X14 98 ) X3 )  ( <= ( + Y3 55 ) Y14 )  ( <= ( + Y14 54 ) Y3 )  )
( or ( <= ( + X3 16 ) X15 )  ( <= ( + X15 75 ) X3 )  ( <= ( + Y3 55 ) Y15 )  ( <= ( + Y15 48 ) Y3 )  )
( or ( <= ( + X3 16 ) X16 )  ( <= ( + X16 13 ) X3 )  ( <= ( + Y3 55 ) Y16 )  ( <= ( + Y16 70 ) Y3 )  )
( or ( <= ( + X3 16 ) X17 )  ( <= ( + X17 22 ) X3 )  ( <= ( + Y3 55 ) Y17 )  ( <= ( + Y17 28 ) Y3 )  )
( or ( <= ( + X4 22 ) X5 )  ( <= ( + X5 90 ) X4 )  ( <= ( + Y4 15 ) Y5 )  ( <= ( + Y5 23 ) Y4 )  )
( or ( <= ( + X4 22 ) X6 )  ( <= ( + X6 59 ) X4 )  ( <= ( + Y4 15 ) Y6 )  ( <= ( + Y6 2 ) Y4 )  )
( or ( <= ( + X4 22 ) X7 )  ( <= ( + X7 59 ) X4 )  ( <= ( + Y4 15 ) Y7 )  ( <= ( + Y7 34 ) Y4 )  )
( or ( <= ( + X4 22 ) X8 )  ( <= ( + X8 99 ) X4 )  ( <= ( + Y4 15 ) Y8 )  ( <= ( + Y8 75 ) Y4 )  )
( or ( <= ( + X4 22 ) X9 )  ( <= ( + X9 16 ) X4 )  ( <= ( + Y4 15 ) Y9 )  ( <= ( + Y9 57 ) Y4 )  )
( or ( <= ( + X4 22 ) X10 )  ( <= ( + X10 3 ) X4 )  ( <= ( + Y4 15 ) Y10 )  ( <= ( + Y10 17 ) Y4 )  )
( or ( <= ( + X4 22 ) X11 )  ( <= ( + X11 27 ) X4 )  ( <= ( + Y4 15 ) Y11 )  ( <= ( + Y11 23 ) Y4 )  )
( or ( <= ( + X4 22 ) X12 )  ( <= ( + X12 89 ) X4 )  ( <= ( + Y4 15 ) Y12 )  ( <= ( + Y12 45 ) Y4 )  )
( or ( <= ( + X4 22 ) X13 )  ( <= ( + X13 41 ) X4 )  ( <= ( + Y4 15 ) Y13 )  ( <= ( + Y13 3 ) Y4 )  )
( or ( <= ( + X4 22 ) X14 )  ( <= ( + X14 98 ) X4 )  ( <= ( + Y4 15 ) Y14 )  ( <= ( + Y14 54 ) Y4 )  )
( or ( <= ( + X4 22 ) X15 )  ( <= ( + X15 75 ) X4 )  ( <= ( + Y4 15 ) Y15 )  ( <= ( + Y15 48 ) Y4 )  )
( or ( <= ( + X4 22 ) X16 )  ( <= ( + X16 13 ) X4 )  ( <= ( + Y4 15 ) Y16 )  ( <= ( + Y16 70 ) Y4 )  )
( or ( <= ( + X4 22 ) X17 )  ( <= ( + X17 22 ) X4 )  ( <= ( + Y4 15 ) Y17 )  ( <= ( + Y17 28 ) Y4 )  )
( or ( <= ( + X5 90 ) X6 )  ( <= ( + X6 59 ) X5 )  ( <= ( + Y5 23 ) Y6 )  ( <= ( + Y6 2 ) Y5 )  )
( or ( <= ( + X5 90 ) X7 )  ( <= ( + X7 59 ) X5 )  ( <= ( + Y5 23 ) Y7 )  ( <= ( + Y7 34 ) Y5 )  )
( or ( <= ( + X5 90 ) X8 )  ( <= ( + X8 99 ) X5 )  ( <= ( + Y5 23 ) Y8 )  ( <= ( + Y8 75 ) Y5 )  )
( or ( <= ( + X5 90 ) X9 )  ( <= ( + X9 16 ) X5 )  ( <= ( + Y5 23 ) Y9 )  ( <= ( + Y9 57 ) Y5 )  )
( or ( <= ( + X5 90 ) X10 )  ( <= ( + X10 3 ) X5 )  ( <= ( + Y5 23 ) Y10 )  ( <= ( + Y10 17 ) Y5 )  )
( or ( <= ( + X5 90 ) X11 )  ( <= ( + X11 27 ) X5 )  ( <= ( + Y5 23 ) Y11 )  ( <= ( + Y11 23 ) Y5 )  )
( or ( <= ( + X5 90 ) X12 )  ( <= ( + X12 89 ) X5 )  ( <= ( + Y5 23 ) Y12 )  ( <= ( + Y12 45 ) Y5 )  )
( or ( <= ( + X5 90 ) X13 )  ( <= ( + X13 41 ) X5 )  ( <= ( + Y5 23 ) Y13 )  ( <= ( + Y13 3 ) Y5 )  )
( or ( <= ( + X5 90 ) X14 )  ( <= ( + X14 98 ) X5 )  ( <= ( + Y5 23 ) Y14 )  ( <= ( + Y14 54 ) Y5 )  )
( or ( <= ( + X5 90 ) X15 )  ( <= ( + X15 75 ) X5 )  ( <= ( + Y5 23 ) Y15 )  ( <= ( + Y15 48 ) Y5 )  )
( or ( <= ( + X5 90 ) X16 )  ( <= ( + X16 13 ) X5 )  ( <= ( + Y5 23 ) Y16 )  ( <= ( + Y16 70 ) Y5 )  )
( or ( <= ( + X5 90 ) X17 )  ( <= ( + X17 22 ) X5 )  ( <= ( + Y5 23 ) Y17 )  ( <= ( + Y17 28 ) Y5 )  )
( or ( <= ( + X6 59 ) X7 )  ( <= ( + X7 59 ) X6 )  ( <= ( + Y6 2 ) Y7 )  ( <= ( + Y7 34 ) Y6 )  )
( or ( <= ( + X6 59 ) X8 )  ( <= ( + X8 99 ) X6 )  ( <= ( + Y6 2 ) Y8 )  ( <= ( + Y8 75 ) Y6 )  )
( or ( <= ( + X6 59 ) X9 )  ( <= ( + X9 16 ) X6 )  ( <= ( + Y6 2 ) Y9 )  ( <= ( + Y9 57 ) Y6 )  )
( or ( <= ( + X6 59 ) X10 )  ( <= ( + X10 3 ) X6 )  ( <= ( + Y6 2 ) Y10 )  ( <= ( + Y10 17 ) Y6 )  )
( or ( <= ( + X6 59 ) X11 )  ( <= ( + X11 27 ) X6 )  ( <= ( + Y6 2 ) Y11 )  ( <= ( + Y11 23 ) Y6 )  )
( or ( <= ( + X6 59 ) X12 )  ( <= ( + X12 89 ) X6 )  ( <= ( + Y6 2 ) Y12 )  ( <= ( + Y12 45 ) Y6 )  )
( or ( <= ( + X6 59 ) X13 )  ( <= ( + X13 41 ) X6 )  ( <= ( + Y6 2 ) Y13 )  ( <= ( + Y13 3 ) Y6 )  )
( or ( <= ( + X6 59 ) X14 )  ( <= ( + X14 98 ) X6 )  ( <= ( + Y6 2 ) Y14 )  ( <= ( + Y14 54 ) Y6 )  )
( or ( <= ( + X6 59 ) X15 )  ( <= ( + X15 75 ) X6 )  ( <= ( + Y6 2 ) Y15 )  ( <= ( + Y15 48 ) Y6 )  )
( or ( <= ( + X6 59 ) X16 )  ( <= ( + X16 13 ) X6 )  ( <= ( + Y6 2 ) Y16 )  ( <= ( + Y16 70 ) Y6 )  )
( or ( <= ( + X6 59 ) X17 )  ( <= ( + X17 22 ) X6 )  ( <= ( + Y6 2 ) Y17 )  ( <= ( + Y17 28 ) Y6 )  )
( or ( <= ( + X7 59 ) X8 )  ( <= ( + X8 99 ) X7 )  ( <= ( + Y7 34 ) Y8 )  ( <= ( + Y8 75 ) Y7 )  )
( or ( <= ( + X7 59 ) X9 )  ( <= ( + X9 16 ) X7 )  ( <= ( + Y7 34 ) Y9 )  ( <= ( + Y9 57 ) Y7 )  )
( or ( <= ( + X7 59 ) X10 )  ( <= ( + X10 3 ) X7 )  ( <= ( + Y7 34 ) Y10 )  ( <= ( + Y10 17 ) Y7 )  )
( or ( <= ( + X7 59 ) X11 )  ( <= ( + X11 27 ) X7 )  ( <= ( + Y7 34 ) Y11 )  ( <= ( + Y11 23 ) Y7 )  )
( or ( <= ( + X7 59 ) X12 )  ( <= ( + X12 89 ) X7 )  ( <= ( + Y7 34 ) Y12 )  ( <= ( + Y12 45 ) Y7 )  )
( or ( <= ( + X7 59 ) X13 )  ( <= ( + X13 41 ) X7 )  ( <= ( + Y7 34 ) Y13 )  ( <= ( + Y13 3 ) Y7 )  )
( or ( <= ( + X7 59 ) X14 )  ( <= ( + X14 98 ) X7 )  ( <= ( + Y7 34 ) Y14 )  ( <= ( + Y14 54 ) Y7 )  )
( or ( <= ( + X7 59 ) X15 )  ( <= ( + X15 75 ) X7 )  ( <= ( + Y7 34 ) Y15 )  ( <= ( + Y15 48 ) Y7 )  )
( or ( <= ( + X7 59 ) X16 )  ( <= ( + X16 13 ) X7 )  ( <= ( + Y7 34 ) Y16 )  ( <= ( + Y16 70 ) Y7 )  )
( or ( <= ( + X7 59 ) X17 )  ( <= ( + X17 22 ) X7 )  ( <= ( + Y7 34 ) Y17 )  ( <= ( + Y17 28 ) Y7 )  )
( or ( <= ( + X8 99 ) X9 )  ( <= ( + X9 16 ) X8 )  ( <= ( + Y8 75 ) Y9 )  ( <= ( + Y9 57 ) Y8 )  )
( or ( <= ( + X8 99 ) X10 )  ( <= ( + X10 3 ) X8 )  ( <= ( + Y8 75 ) Y10 )  ( <= ( + Y10 17 ) Y8 )  )
( or ( <= ( + X8 99 ) X11 )  ( <= ( + X11 27 ) X8 )  ( <= ( + Y8 75 ) Y11 )  ( <= ( + Y11 23 ) Y8 )  )
( or ( <= ( + X8 99 ) X12 )  ( <= ( + X12 89 ) X8 )  ( <= ( + Y8 75 ) Y12 )  ( <= ( + Y12 45 ) Y8 )  )
( or ( <= ( + X8 99 ) X13 )  ( <= ( + X13 41 ) X8 )  ( <= ( + Y8 75 ) Y13 )  ( <= ( + Y13 3 ) Y8 )  )
( or ( <= ( + X8 99 ) X14 )  ( <= ( + X14 98 ) X8 )  ( <= ( + Y8 75 ) Y14 )  ( <= ( + Y14 54 ) Y8 )  )
( or ( <= ( + X8 99 ) X15 )  ( <= ( + X15 75 ) X8 )  ( <= ( + Y8 75 ) Y15 )  ( <= ( + Y15 48 ) Y8 )  )
( or ( <= ( + X8 99 ) X16 )  ( <= ( + X16 13 ) X8 )  ( <= ( + Y8 75 ) Y16 )  ( <= ( + Y16 70 ) Y8 )  )
( or ( <= ( + X8 99 ) X17 )  ( <= ( + X17 22 ) X8 )  ( <= ( + Y8 75 ) Y17 )  ( <= ( + Y17 28 ) Y8 )  )
( or ( <= ( + X9 16 ) X10 )  ( <= ( + X10 3 ) X9 )  ( <= ( + Y9 57 ) Y10 )  ( <= ( + Y10 17 ) Y9 )  )
( or ( <= ( + X9 16 ) X11 )  ( <= ( + X11 27 ) X9 )  ( <= ( + Y9 57 ) Y11 )  ( <= ( + Y11 23 ) Y9 )  )
( or ( <= ( + X9 16 ) X12 )  ( <= ( + X12 89 ) X9 )  ( <= ( + Y9 57 ) Y12 )  ( <= ( + Y12 45 ) Y9 )  )
( or ( <= ( + X9 16 ) X13 )  ( <= ( + X13 41 ) X9 )  ( <= ( + Y9 57 ) Y13 )  ( <= ( + Y13 3 ) Y9 )  )
( or ( <= ( + X9 16 ) X14 )  ( <= ( + X14 98 ) X9 )  ( <= ( + Y9 57 ) Y14 )  ( <= ( + Y14 54 ) Y9 )  )
( or ( <= ( + X9 16 ) X15 )  ( <= ( + X15 75 ) X9 )  ( <= ( + Y9 57 ) Y15 )  ( <= ( + Y15 48 ) Y9 )  )
( or ( <= ( + X9 16 ) X16 )  ( <= ( + X16 13 ) X9 )  ( <= ( + Y9 57 ) Y16 )  ( <= ( + Y16 70 ) Y9 )  )
( or ( <= ( + X9 16 ) X17 )  ( <= ( + X17 22 ) X9 )  ( <= ( + Y9 57 ) Y17 )  ( <= ( + Y17 28 ) Y9 )  )
( or ( <= ( + X10 3 ) X11 )  ( <= ( + X11 27 ) X10 )  ( <= ( + Y10 17 ) Y11 )  ( <= ( + Y11 23 ) Y10 )  )
( or ( <= ( + X10 3 ) X12 )  ( <= ( + X12 89 ) X10 )  ( <= ( + Y10 17 ) Y12 )  ( <= ( + Y12 45 ) Y10 )  )
( or ( <= ( + X10 3 ) X13 )  ( <= ( + X13 41 ) X10 )  ( <= ( + Y10 17 ) Y13 )  ( <= ( + Y13 3 ) Y10 )  )
( or ( <= ( + X10 3 ) X14 )  ( <= ( + X14 98 ) X10 )  ( <= ( + Y10 17 ) Y14 )  ( <= ( + Y14 54 ) Y10 )  )
( or ( <= ( + X10 3 ) X15 )  ( <= ( + X15 75 ) X10 )  ( <= ( + Y10 17 ) Y15 )  ( <= ( + Y15 48 ) Y10 )  )
( or ( <= ( + X10 3 ) X16 )  ( <= ( + X16 13 ) X10 )  ( <= ( + Y10 17 ) Y16 )  ( <= ( + Y16 70 ) Y10 )  )
( or ( <= ( + X10 3 ) X17 )  ( <= ( + X17 22 ) X10 )  ( <= ( + Y10 17 ) Y17 )  ( <= ( + Y17 28 ) Y10 )  )
( or ( <= ( + X11 27 ) X12 )  ( <= ( + X12 89 ) X11 )  ( <= ( + Y11 23 ) Y12 )  ( <= ( + Y12 45 ) Y11 )  )
( or ( <= ( + X11 27 ) X13 )  ( <= ( + X13 41 ) X11 )  ( <= ( + Y11 23 ) Y13 )  ( <= ( + Y13 3 ) Y11 )  )
( or ( <= ( + X11 27 ) X14 )  ( <= ( + X14 98 ) X11 )  ( <= ( + Y11 23 ) Y14 )  ( <= ( + Y14 54 ) Y11 )  )
( or ( <= ( + X11 27 ) X15 )  ( <= ( + X15 75 ) X11 )  ( <= ( + Y11 23 ) Y15 )  ( <= ( + Y15 48 ) Y11 )  )
( or ( <= ( + X11 27 ) X16 )  ( <= ( + X16 13 ) X11 )  ( <= ( + Y11 23 ) Y16 )  ( <= ( + Y16 70 ) Y11 )  )
( or ( <= ( + X11 27 ) X17 )  ( <= ( + X17 22 ) X11 )  ( <= ( + Y11 23 ) Y17 )  ( <= ( + Y17 28 ) Y11 )  )
( or ( <= ( + X12 89 ) X13 )  ( <= ( + X13 41 ) X12 )  ( <= ( + Y12 45 ) Y13 )  ( <= ( + Y13 3 ) Y12 )  )
( or ( <= ( + X12 89 ) X14 )  ( <= ( + X14 98 ) X12 )  ( <= ( + Y12 45 ) Y14 )  ( <= ( + Y14 54 ) Y12 )  )
( or ( <= ( + X12 89 ) X15 )  ( <= ( + X15 75 ) X12 )  ( <= ( + Y12 45 ) Y15 )  ( <= ( + Y15 48 ) Y12 )  )
( or ( <= ( + X12 89 ) X16 )  ( <= ( + X16 13 ) X12 )  ( <= ( + Y12 45 ) Y16 )  ( <= ( + Y16 70 ) Y12 )  )
( or ( <= ( + X12 89 ) X17 )  ( <= ( + X17 22 ) X12 )  ( <= ( + Y12 45 ) Y17 )  ( <= ( + Y17 28 ) Y12 )  )
( or ( <= ( + X13 41 ) X14 )  ( <= ( + X14 98 ) X13 )  ( <= ( + Y13 3 ) Y14 )  ( <= ( + Y14 54 ) Y13 )  )
( or ( <= ( + X13 41 ) X15 )  ( <= ( + X15 75 ) X13 )  ( <= ( + Y13 3 ) Y15 )  ( <= ( + Y15 48 ) Y13 )  )
( or ( <= ( + X13 41 ) X16 )  ( <= ( + X16 13 ) X13 )  ( <= ( + Y13 3 ) Y16 )  ( <= ( + Y16 70 ) Y13 )  )
( or ( <= ( + X13 41 ) X17 )  ( <= ( + X17 22 ) X13 )  ( <= ( + Y13 3 ) Y17 )  ( <= ( + Y17 28 ) Y13 )  )
( or ( <= ( + X14 98 ) X15 )  ( <= ( + X15 75 ) X14 )  ( <= ( + Y14 54 ) Y15 )  ( <= ( + Y15 48 ) Y14 )  )
( or ( <= ( + X14 98 ) X16 )  ( <= ( + X16 13 ) X14 )  ( <= ( + Y14 54 ) Y16 )  ( <= ( + Y16 70 ) Y14 )  )
( or ( <= ( + X14 98 ) X17 )  ( <= ( + X17 22 ) X14 )  ( <= ( + Y14 54 ) Y17 )  ( <= ( + Y17 28 ) Y14 )  )
( or ( <= ( + X15 75 ) X16 )  ( <= ( + X16 13 ) X15 )  ( <= ( + Y15 48 ) Y16 )  ( <= ( + Y16 70 ) Y15 )  )
( or ( <= ( + X15 75 ) X17 )  ( <= ( + X17 22 ) X15 )  ( <= ( + Y15 48 ) Y17 )  ( <= ( + Y17 28 ) Y15 )  )
( or ( <= ( + X16 13 ) X17 )  ( <= ( + X17 22 ) X16 )  ( <= ( + Y16 70 ) Y17 )  ( <= ( + Y17 28 ) Y16 )  )
( >= X0 0)
( <= ( + X0 87) Z)
( >= Y0 0)
( <= ( + Y0 51 ) 100)
( >= X1 0)
( <= ( + X1 32) Z)
( >= Y1 0)
( <= ( + Y1 95 ) 100)
( >= X2 0)
( <= ( + X2 51) Z)
( >= Y2 0)
( <= ( + Y2 54 ) 100)
( >= X3 0)
( <= ( + X3 16) Z)
( >= Y3 0)
( <= ( + Y3 55 ) 100)
( >= X4 0)
( <= ( + X4 22) Z)
( >= Y4 0)
( <= ( + Y4 15 ) 100)
( >= X5 0)
( <= ( + X5 90) Z)
( >= Y5 0)
( <= ( + Y5 23 ) 100)
( >= X6 0)
( <= ( + X6 59) Z)
( >= Y6 0)
( <= ( + Y6 2 ) 100)
( >= X7 0)
( <= ( + X7 59) Z)
( >= Y7 0)
( <= ( + Y7 34 ) 100)
( >= X8 0)
( <= ( + X8 99) Z)
( >= Y8 0)
( <= ( + Y8 75 ) 100)
( >= X9 0)
( <= ( + X9 16) Z)
( >= Y9 0)
( <= ( + Y9 57 ) 100)
( >= X10 0)
( <= ( + X10 3) Z)
( >= Y10 0)
( <= ( + Y10 17 ) 100)
( >= X11 0)
( <= ( + X11 27) Z)
( >= Y11 0)
( <= ( + Y11 23 ) 100)
( >= X12 0)
( <= ( + X12 89) Z)
( >= Y12 0)
( <= ( + Y12 45 ) 100)
( >= X13 0)
( <= ( + X13 41) Z)
( >= Y13 0)
( <= ( + Y13 3 ) 100)
( >= X14 0)
( <= ( + X14 98) Z)
( >= Y14 0)
( <= ( + Y14 54 ) 100)
( >= X15 0)
( <= ( + X15 75) Z)
( >= Y15 0)
( <= ( + Y15 48 ) 100)
( >= X16 0)
( <= ( + X16 13) Z)
( >= Y16 0)
( <= ( + Y16 70 ) 100)
( >= X17 0)
( <= ( + X17 22) Z)
( >= Y17 0)
( <= ( + Y17 28 ) 100)
) )
)(=> $phi $goal))))